100 1 0 0
57 94 59 83 82 91 42 84 85 18 94 18 31 27 31 42 58 57 55 97 79 10 34 100 98 45 19 77 56 25 60 22 84 89 12 46 20 85 42 94 20 65 27 34 27 91 17 56 23 89 18 11 91 79 14 99 45 73 81 96 51 96 63 40 93 87 71 54 74 15 32 57 70 62 12 71 57 97 48 33 42 15 39 91 17 63 81 49 60 90 87 25 15 30 76 76 53 59 40 59 
94 74 77 74 29 11 73 80 81 82 75 42 44 57 20 20 99 95 52 81 68 16 79 30 16 90 21 49 70 78 77 21 84 19 65 38 25 43 99 75 80 10 44 26 21 74 20 22 81 89 15 35 24 16 43 75 25 76 48 75 15 23 10 81 81 67 58 77 49 16 65 74 14 41 74 74 17 12 95 29 75 61 59 37 75 90 17 79 15 88 76 93 98 80 33 39 96 71 39 49 
2732 
